(declare-fun X_0 () Real)
(declare-fun X_1 () Real)
(declare-fun Y_0 () Real)
(declare-fun Y_1 () Real)
(declare-fun Y_2 () Real)

(assert (<= X_0 -0.099))
(assert (>= X_0 -0.11))
(assert (<= X_1 1.6))
(assert (>= X_1 1.4))

(assert (<= Y_0 6.525))
(assert (>= Y_0 6.51))
(assert (<= Y_1 6.81))
(assert (>= Y_1 6.799))
(assert (<= Y_2 6.82))
(assert (>= Y_2 6.809))

